VRPTWMS/instances/mip/freight/5/N5-C_DV10-C_SV50_F12_2_No_1.lp
\ N5-C_DV10-C_SV50_F12_2

Minimize
  14.87 x_d0_c1 + 14.87 z_d0_c1 + 25.5 x_d0_c2 + 25.5 z_d0_c2 + 26.48 x_d0_c3 + 26.48 z_d0_c3 + 8.6 x_d0_c4 + 8.6 z_d0_c4 + 27.07 x_d0_c5 + 27.07 z_d0_c5 + 33.0 x_c1_c2 + 33.0 x_c2_c1 + 33.0 z_c1_c2 + 33.0 z_c2_c1 + 21.21 x_c1_c3 + 21.21 x_c3_c1 + 21.21 z_c1_c3 + 21.21 z_c3_c1 + 23.43 x_c1_c4 + 23.43 x_c4_c1 + 23.43 z_c1_c4 + 23.43 z_c4_c1 + 39.22 x_c1_c5 + 39.22 x_c5_c1 + 39.22 z_c1_c5 + 39.22 z_c5_c1 + 23.43 x_c2_c3 + 23.43 x_c3_c2 + 23.43 z_c2_c3 + 23.43 z_c3_c2 + 25.46 x_c2_c4 + 25.46 x_c4_c2 + 25.46 z_c2_c4 + 25.46 z_c4_c2 + 13.6 x_c2_c5 + 13.6 x_c5_c2 + 13.6 z_c2_c5 + 13.6 z_c5_c2 + 33.0 x_c3_c4 + 33.0 x_c4_c3 + 33.0 z_c3_c4 + 33.0 z_c4_c3 + 35.61 x_c3_c5 + 35.61 x_c5_c3 + 35.61 z_c3_c5 + 35.61 z_c5_c3 + 22.56 x_c4_c5 + 22.56 x_c5_c4 + 22.56 z_c4_c5 + 22.56 z_c5_c4 + 14.87 x_c1_dN + 14.87 z_c1_dN + 25.5 x_c2_dN + 25.5 z_c2_dN + 26.48 x_c3_dN + 26.48 z_c3_dN + 8.6 x_c4_dN + 8.6 z_c4_dN + 27.07 x_c5_dN + 27.07 z_c5_dN + 1000.0 x_d0_c1 + 1000.0 z_d0_c1 + 1000.0 x_d0_c2 + 1000.0 z_d0_c2 + 1000.0 x_d0_c3 + 1000.0 z_d0_c3 + 1000.0 x_d0_c4 + 1000.0 z_d0_c4 + 1000.0 x_d0_c5 + 1000.0 z_d0_c5
Subject To
  Successor_DV_c1: x_c1_c2 + x_c1_c3 + x_c1_c4 + x_c1_c5 + x_c1_dN = 1
  Successor_DV_c2: x_c2_c1 + x_c2_c3 + x_c2_c4 + x_c2_c5 + x_c2_dN = 1
  Successor_DV_c3: x_c3_c1 + x_c3_c2 + x_c3_c4 + x_c3_c5 + x_c3_dN = 1
  Successor_DV_c4: x_c4_c1 + x_c4_c2 + x_c4_c3 + x_c4_c5 + x_c4_dN = 1
  Successor_DV_c5: x_c5_c1 + x_c5_c2 + x_c5_c3 + x_c5_c4 + x_c5_dN = 1
  Successor_SV_c1: z_c1_c2 + z_c1_c3 + z_c1_c4 + z_c1_c5 + z_c1_dN <= 1
  Successor_SV_c2: z_c2_c1 + z_c2_c3 + z_c2_c4 + z_c2_c5 + z_c2_dN <= 1
  Successor_SV_c3: z_c3_c1 + z_c3_c2 + z_c3_c4 + z_c3_c5 + z_c3_dN <= 1
  Successor_SV_c4: z_c4_c1 + z_c4_c2 + z_c4_c3 + z_c4_c5 + z_c4_dN <= 1
  Successor_SV_c5: z_c5_c1 + z_c5_c2 + z_c5_c3 + z_c5_c4 + z_c5_dN <= 1
  Flow_DV_c1: x_d0_c1 + x_c2_c1 + x_c3_c1 + x_c4_c1 + x_c5_c1 - x_c1_dN - x_c1_c2 - x_c1_c3 - x_c1_c4 - x_c1_c5 = 0
  Flow_DV_c2: x_d0_c2 + x_c1_c2 + x_c3_c2 + x_c4_c2 + x_c5_c2 - x_c2_dN - x_c2_c1 - x_c2_c3 - x_c2_c4 - x_c2_c5 = 0
  Flow_DV_c3: x_d0_c3 + x_c1_c3 + x_c2_c3 + x_c4_c3 + x_c5_c3 - x_c3_dN - x_c3_c1 - x_c3_c2 - x_c3_c4 - x_c3_c5 = 0
  Flow_DV_c4: x_d0_c4 + x_c1_c4 + x_c2_c4 + x_c3_c4 + x_c5_c4 - x_c4_dN - x_c4_c1 - x_c4_c2 - x_c4_c3 - x_c4_c5 = 0
  Flow_DV_c5: x_d0_c5 + x_c1_c5 + x_c2_c5 + x_c3_c5 + x_c4_c5 - x_c5_dN - x_c5_c1 - x_c5_c2 - x_c5_c3 - x_c5_c4 = 0
  Flow_SV_c1: z_d0_c1 + z_c2_c1 + z_c3_c1 + z_c4_c1 + z_c5_c1 - z_c1_dN - z_c1_c2 - z_c1_c3 - z_c1_c4 - z_c1_c5 = 0
  Flow_SV_c2: z_d0_c2 + z_c1_c2 + z_c3_c2 + z_c4_c2 + z_c5_c2 - z_c2_dN - z_c2_c1 - z_c2_c3 - z_c2_c4 - z_c2_c5 = 0
  Flow_SV_c3: z_d0_c3 + z_c1_c3 + z_c2_c3 + z_c4_c3 + z_c5_c3 - z_c3_dN - z_c3_c1 - z_c3_c2 - z_c3_c4 - z_c3_c5 = 0
  Flow_SV_c4: z_d0_c4 + z_c1_c4 + z_c2_c4 + z_c3_c4 + z_c5_c4 - z_c4_dN - z_c4_c1 - z_c4_c2 - z_c4_c3 - z_c4_c5 = 0
  Flow_SV_c5: z_d0_c5 + z_c1_c5 + z_c2_c5 + z_c3_c5 + z_c4_c5 - z_c5_dN - z_c5_c1 - z_c5_c2 - z_c5_c3 - z_c5_c4 = 0
  travelDV_d0_c1: tauD_d0 - tauD_c1 + 103.7175 x_d0_c1 <= 100.0
  travelDV_d0_c2: tauD_d0 - tauD_c2 + 106.375 x_d0_c2 <= 100.0
  travelDV_d0_c3: tauD_d0 - tauD_c3 + 106.62 x_d0_c3 <= 100.0
  travelDV_d0_c4: tauD_d0 - tauD_c4 + 102.15 x_d0_c4 <= 100.0
  travelDV_d0_c5: tauD_d0 - tauD_c5 + 106.7675 x_d0_c5 <= 100.0
  travelDV_c1_c2: tauD_c1 - tauD_c2 + 113.25 x_c1_c2 + 8.0 p_1 <= 100.0
  travelDV_c1_c3: tauD_c1 - tauD_c3 + 110.3025 x_c1_c3 + 8.0 p_1 <= 100.0
  travelDV_c1_c4: tauD_c1 - tauD_c4 + 110.8575 x_c1_c4 + 8.0 p_1 <= 100.0
  travelDV_c1_c5: tauD_c1 - tauD_c5 + 114.805 x_c1_c5 + 8.0 p_1 <= 100.0
  travelDV_c2_c1: tauD_c2 - tauD_c1 + 114.25 x_c2_c1 + 8.0 p_2 <= 100.0
  travelDV_c2_c3: tauD_c2 - tauD_c3 + 111.8575 x_c2_c3 + 8.0 p_2 <= 100.0
  travelDV_c2_c4: tauD_c2 - tauD_c4 + 112.365 x_c2_c4 + 8.0 p_2 <= 100.0
  travelDV_c2_c5: tauD_c2 - tauD_c5 + 109.4 x_c2_c5 + 8.0 p_2 <= 100.0
  travelDV_c3_c1: tauD_c3 - tauD_c1 + 108.3025 x_c3_c1 + 8.0 p_3 <= 100.0
  travelDV_c3_c2: tauD_c3 - tauD_c2 + 108.8575 x_c3_c2 + 8.0 p_3 <= 100.0
  travelDV_c3_c4: tauD_c3 - tauD_c4 + 111.25 x_c3_c4 + 8.0 p_3 <= 100.0
  travelDV_c3_c5: tauD_c3 - tauD_c5 + 111.9025 x_c3_c5 + 8.0 p_3 <= 100.0
  travelDV_c4_c1: tauD_c4 - tauD_c1 + 110.8575 x_c4_c1 + 8.0 p_4 <= 100.0
  travelDV_c4_c2: tauD_c4 - tauD_c2 + 111.365 x_c4_c2 + 8.0 p_4 <= 100.0
  travelDV_c4_c3: tauD_c4 - tauD_c3 + 113.25 x_c4_c3 + 8.0 p_4 <= 100.0
  travelDV_c4_c5: tauD_c4 - tauD_c5 + 110.64 x_c4_c5 + 8.0 p_4 <= 100.0
  travelDV_c5_c1: tauD_c5 - tauD_c1 + 114.805 x_c5_c1 + 8.0 p_5 <= 100.0
  travelDV_c5_c2: tauD_c5 - tauD_c2 + 108.4 x_c5_c2 + 8.0 p_5 <= 100.0
  travelDV_c5_c3: tauD_c5 - tauD_c3 + 113.9025 x_c5_c3 + 8.0 p_5 <= 100.0
  travelDV_c5_c4: tauD_c5 - tauD_c4 + 110.64 x_c5_c4 + 8.0 p_5 <= 100.0
  TravelSV_d0_c1: tauS_d0 - tauS_c1 + 100.0 z_d0_c1 <= 96.2825
  TravelSV_d0_c2: tauS_d0 - tauS_c2 + 100.0 z_d0_c2 <= 93.625
  TravelSV_d0_c3: tauS_d0 - tauS_c3 + 100.0 z_d0_c3 <= 93.38
  TravelSV_d0_c4: tauS_d0 - tauS_c4 + 100.0 z_d0_c4 <= 97.85
  TravelSV_d0_c5: tauS_d0 - tauS_c5 + 100.0 z_d0_c5 <= 93.2325
  TravelSV_d0_dN: tauS_d0 - tauS_dN + 100.0 z_d0_dN <= 100.0
  TravelSV_c1_c2: tauS_c1 - tauS_c2 + 100.0 z_c1_c2 <= 83.75
  TravelSV_c1_c3: tauS_c1 - tauS_c3 + 100.0 z_c1_c3 <= 86.6975
  TravelSV_c1_c4: tauS_c1 - tauS_c4 + 100.0 z_c1_c4 <= 86.1425
  TravelSV_c1_c5: tauS_c1 - tauS_c5 + 100.0 z_c1_c5 <= 82.195
  TravelSV_c1_dN: tauS_c1 - tauS_dN + 100.0 z_c1_dN <= 88.2825
  TravelSV_c2_c1: tauS_c2 - tauS_c1 + 100.0 z_c2_c1 <= 83.75
  TravelSV_c2_c3: tauS_c2 - tauS_c3 + 100.0 z_c2_c3 <= 86.1425
  TravelSV_c2_c4: tauS_c2 - tauS_c4 + 100.0 z_c2_c4 <= 85.635
  TravelSV_c2_c5: tauS_c2 - tauS_c5 + 100.0 z_c2_c5 <= 88.6
  TravelSV_c2_dN: tauS_c2 - tauS_dN + 100.0 z_c2_dN <= 85.625
  TravelSV_c3_c1: tauS_c3 - tauS_c1 + 100.0 z_c3_c1 <= 86.6975
  TravelSV_c3_c2: tauS_c3 - tauS_c2 + 100.0 z_c3_c2 <= 86.1425
  TravelSV_c3_c4: tauS_c3 - tauS_c4 + 100.0 z_c3_c4 <= 83.75
  TravelSV_c3_c5: tauS_c3 - tauS_c5 + 100.0 z_c3_c5 <= 83.0975
  TravelSV_c3_dN: tauS_c3 - tauS_dN + 100.0 z_c3_dN <= 85.38
  TravelSV_c4_c1: tauS_c4 - tauS_c1 + 100.0 z_c4_c1 <= 86.1425
  TravelSV_c4_c2: tauS_c4 - tauS_c2 + 100.0 z_c4_c2 <= 85.635
  TravelSV_c4_c3: tauS_c4 - tauS_c3 + 100.0 z_c4_c3 <= 83.75
  TravelSV_c4_c5: tauS_c4 - tauS_c5 + 100.0 z_c4_c5 <= 86.36
  TravelSV_c4_dN: tauS_c4 - tauS_dN + 100.0 z_c4_dN <= 89.85
  TravelSV_c5_c1: tauS_c5 - tauS_c1 + 100.0 z_c5_c1 <= 82.195
  TravelSV_c5_c2: tauS_c5 - tauS_c2 + 100.0 z_c5_c2 <= 88.6
  TravelSV_c5_c3: tauS_c5 - tauS_c3 + 100.0 z_c5_c3 <= 83.0975
  TravelSV_c5_c4: tauS_c5 - tauS_c4 + 100.0 z_c5_c4 <= 86.36
  TravelSV_c5_dN: tauS_c5 - tauS_dN + 100.0 z_c5_dN <= 85.2325
  time_window_c1_e: tauD_c1 + 8.0 o_1 >= 65.0
  time_window_c1_l: tauD_c1 + 8.0 o_1 <= 80.0
  time_window_c2_e: tauD_c2 + 8.0 o_2 >= 45.0
  time_window_c2_l: tauD_c2 + 8.0 o_2 <= 60.0
  time_window_c3_e: tauD_c3 + 8.0 o_3 >= 0.0
  time_window_c3_l: tauD_c3 + 8.0 o_3 <= 100.0
  time_window_c4_e: tauD_c4 + 8.0 o_4 >= 65.0
  time_window_c4_l: tauD_c4 + 8.0 o_4 <= 80.0
  time_window_c5_e: tauD_c5 + 8.0 o_5 >= 0.0
  time_window_c5_l: tauD_c5 + 8.0 o_5 <= 100.0
  SyncA_c1_c2_c2: 5.0 o_1 + 100.0 x_c1_c2 - tauD_c2 - 8.25 z_c1_c2 + [ tauS_c2 * z_c1_c2 ] <= 91.75
  SyncA_c1_c2_c3: 5.0 o_1 + 100.0 x_c1_c2 - tauD_c2 - 5.3025 z_c1_c3 + [ tauS_c3 * z_c1_c3 ] <= 91.75
  SyncA_c1_c2_c4: 5.0 o_1 + 100.0 x_c1_c2 - tauD_c2 - 5.8575 z_c1_c4 + [ tauS_c4 * z_c1_c4 ] <= 91.75
  SyncA_c1_c2_c5: 5.0 o_1 + 100.0 x_c1_c2 - tauD_c2 - 9.805 z_c1_c5 + [ tauS_c5 * z_c1_c5 ] <= 91.75
  SyncA_c1_c2_dN: 5.0 o_1 + 100.0 x_c1_c2 - tauD_c2 - 3.7175 z_c1_dN + [ tauS_dN * z_c1_dN ] <= 91.75
  SyncA_c1_c3_c2: 5.0 o_1 + 100.0 x_c1_c3 - tauD_c3 - 8.25 z_c1_c2 + [ tauS_c2 * z_c1_c2 ] <= 94.6975
  SyncA_c1_c3_c3: 5.0 o_1 + 100.0 x_c1_c3 - tauD_c3 - 5.3025 z_c1_c3 + [ tauS_c3 * z_c1_c3 ] <= 94.6975
  SyncA_c1_c3_c4: 5.0 o_1 + 100.0 x_c1_c3 - tauD_c3 - 5.8575 z_c1_c4 + [ tauS_c4 * z_c1_c4 ] <= 94.6975
  SyncA_c1_c3_c5: 5.0 o_1 + 100.0 x_c1_c3 - tauD_c3 - 9.805 z_c1_c5 + [ tauS_c5 * z_c1_c5 ] <= 94.6975
  SyncA_c1_c3_dN: 5.0 o_1 + 100.0 x_c1_c3 - tauD_c3 - 3.7175 z_c1_dN + [ tauS_dN * z_c1_dN ] <= 94.6975
  SyncA_c1_c4_c2: 5.0 o_1 + 100.0 x_c1_c4 - tauD_c4 - 8.25 z_c1_c2 + [ tauS_c2 * z_c1_c2 ] <= 94.1425
  SyncA_c1_c4_c3: 5.0 o_1 + 100.0 x_c1_c4 - tauD_c4 - 5.3025 z_c1_c3 + [ tauS_c3 * z_c1_c3 ] <= 94.1425
  SyncA_c1_c4_c4: 5.0 o_1 + 100.0 x_c1_c4 - tauD_c4 - 5.8575 z_c1_c4 + [ tauS_c4 * z_c1_c4 ] <= 94.1425
  SyncA_c1_c4_c5: 5.0 o_1 + 100.0 x_c1_c4 - tauD_c4 - 9.805 z_c1_c5 + [ tauS_c5 * z_c1_c5 ] <= 94.1425
  SyncA_c1_c4_dN: 5.0 o_1 + 100.0 x_c1_c4 - tauD_c4 - 3.7175 z_c1_dN + [ tauS_dN * z_c1_dN ] <= 94.1425
  SyncA_c1_c5_c2: 5.0 o_1 + 100.0 x_c1_c5 - tauD_c5 - 8.25 z_c1_c2 + [ tauS_c2 * z_c1_c2 ] <= 90.195
  SyncA_c1_c5_c3: 5.0 o_1 + 100.0 x_c1_c5 - tauD_c5 - 5.3025 z_c1_c3 + [ tauS_c3 * z_c1_c3 ] <= 90.195
  SyncA_c1_c5_c4: 5.0 o_1 + 100.0 x_c1_c5 - tauD_c5 - 5.8575 z_c1_c4 + [ tauS_c4 * z_c1_c4 ] <= 90.195
  SyncA_c1_c5_c5: 5.0 o_1 + 100.0 x_c1_c5 - tauD_c5 - 9.805 z_c1_c5 + [ tauS_c5 * z_c1_c5 ] <= 90.195
  SyncA_c1_c5_dN: 5.0 o_1 + 100.0 x_c1_c5 - tauD_c5 - 3.7175 z_c1_dN + [ tauS_dN * z_c1_dN ] <= 90.195
  SyncA_c1_dN_c2: 5.0 o_1 + 100.0 x_c1_dN - tauD_dN - 8.25 z_c1_c2 + [ tauS_c2 * z_c1_c2 ] <= 96.2825
  SyncA_c1_dN_c3: 5.0 o_1 + 100.0 x_c1_dN - tauD_dN - 5.3025 z_c1_c3 + [ tauS_c3 * z_c1_c3 ] <= 96.2825
  SyncA_c1_dN_c4: 5.0 o_1 + 100.0 x_c1_dN - tauD_dN - 5.8575 z_c1_c4 + [ tauS_c4 * z_c1_c4 ] <= 96.2825
  SyncA_c1_dN_c5: 5.0 o_1 + 100.0 x_c1_dN - tauD_dN - 9.805 z_c1_c5 + [ tauS_c5 * z_c1_c5 ] <= 96.2825
  SyncA_c1_dN_dN: 5.0 o_1 + 100.0 x_c1_dN - tauD_dN - 3.7175 z_c1_dN + [ tauS_dN * z_c1_dN ] <= 96.2825
  SyncA_c2_c1_c1: 6.0 o_2 + 100.0 x_c2_c1 - tauD_c1 - 8.25 z_c2_c1 + [ tauS_c1 * z_c2_c1 ] <= 91.75
  SyncA_c2_c1_c3: 6.0 o_2 + 100.0 x_c2_c1 - tauD_c1 - 5.8575 z_c2_c3 + [ tauS_c3 * z_c2_c3 ] <= 91.75
  SyncA_c2_c1_c4: 6.0 o_2 + 100.0 x_c2_c1 - tauD_c1 - 6.365 z_c2_c4 + [ tauS_c4 * z_c2_c4 ] <= 91.75
  SyncA_c2_c1_c5: 6.0 o_2 + 100.0 x_c2_c1 - tauD_c1 - 3.4 z_c2_c5 + [ tauS_c5 * z_c2_c5 ] <= 91.75
  SyncA_c2_c1_dN: 6.0 o_2 + 100.0 x_c2_c1 - tauD_c1 - 6.375 z_c2_dN + [ tauS_dN * z_c2_dN ] <= 91.75
  SyncA_c2_c3_c1: 6.0 o_2 + 100.0 x_c2_c3 - tauD_c3 - 8.25 z_c2_c1 + [ tauS_c1 * z_c2_c1 ] <= 94.1425
  SyncA_c2_c3_c3: 6.0 o_2 + 100.0 x_c2_c3 - tauD_c3 - 5.8575 z_c2_c3 + [ tauS_c3 * z_c2_c3 ] <= 94.1425
  SyncA_c2_c3_c4: 6.0 o_2 + 100.0 x_c2_c3 - tauD_c3 - 6.365 z_c2_c4 + [ tauS_c4 * z_c2_c4 ] <= 94.1425
  SyncA_c2_c3_c5: 6.0 o_2 + 100.0 x_c2_c3 - tauD_c3 - 3.4 z_c2_c5 + [ tauS_c5 * z_c2_c5 ] <= 94.1425
  SyncA_c2_c3_dN: 6.0 o_2 + 100.0 x_c2_c3 - tauD_c3 - 6.375 z_c2_dN + [ tauS_dN * z_c2_dN ] <= 94.1425
  SyncA_c2_c4_c1: 6.0 o_2 + 100.0 x_c2_c4 - tauD_c4 - 8.25 z_c2_c1 + [ tauS_c1 * z_c2_c1 ] <= 93.635
  SyncA_c2_c4_c3: 6.0 o_2 + 100.0 x_c2_c4 - tauD_c4 - 5.8575 z_c2_c3 + [ tauS_c3 * z_c2_c3 ] <= 93.635
  SyncA_c2_c4_c4: 6.0 o_2 + 100.0 x_c2_c4 - tauD_c4 - 6.365 z_c2_c4 + [ tauS_c4 * z_c2_c4 ] <= 93.635
  SyncA_c2_c4_c5: 6.0 o_2 + 100.0 x_c2_c4 - tauD_c4 - 3.4 z_c2_c5 + [ tauS_c5 * z_c2_c5 ] <= 93.635
  SyncA_c2_c4_dN: 6.0 o_2 + 100.0 x_c2_c4 - tauD_c4 - 6.375 z_c2_dN + [ tauS_dN * z_c2_dN ] <= 93.635
  SyncA_c2_c5_c1: 6.0 o_2 + 100.0 x_c2_c5 - tauD_c5 - 8.25 z_c2_c1 + [ tauS_c1 * z_c2_c1 ] <= 96.6
  SyncA_c2_c5_c3: 6.0 o_2 + 100.0 x_c2_c5 - tauD_c5 - 5.8575 z_c2_c3 + [ tauS_c3 * z_c2_c3 ] <= 96.6
  SyncA_c2_c5_c4: 6.0 o_2 + 100.0 x_c2_c5 - tauD_c5 - 6.365 z_c2_c4 + [ tauS_c4 * z_c2_c4 ] <= 96.6
  SyncA_c2_c5_c5: 6.0 o_2 + 100.0 x_c2_c5 - tauD_c5 - 3.4 z_c2_c5 + [ tauS_c5 * z_c2_c5 ] <= 96.6
  SyncA_c2_c5_dN: 6.0 o_2 + 100.0 x_c2_c5 - tauD_c5 - 6.375 z_c2_dN + [ tauS_dN * z_c2_dN ] <= 96.6
  SyncA_c2_dN_c1: 6.0 o_2 + 100.0 x_c2_dN - tauD_dN - 8.25 z_c2_c1 + [ tauS_c1 * z_c2_c1 ] <= 93.625
  SyncA_c2_dN_c3: 6.0 o_2 + 100.0 x_c2_dN - tauD_dN - 5.8575 z_c2_c3 + [ tauS_c3 * z_c2_c3 ] <= 93.625
  SyncA_c2_dN_c4: 6.0 o_2 + 100.0 x_c2_dN - tauD_dN - 6.365 z_c2_c4 + [ tauS_c4 * z_c2_c4 ] <= 93.625
  SyncA_c2_dN_c5: 6.0 o_2 + 100.0 x_c2_dN - tauD_dN - 3.4 z_c2_c5 + [ tauS_c5 * z_c2_c5 ] <= 93.625
  SyncA_c2_dN_dN: 6.0 o_2 + 100.0 x_c2_dN - tauD_dN - 6.375 z_c2_dN + [ tauS_dN * z_c2_dN ] <= 93.625
  SyncA_c3_c1_c1: 3.0 o_3 + 100.0 x_c3_c1 - tauD_c1 - 5.3025 z_c3_c1 + [ tauS_c1 * z_c3_c1 ] <= 94.6975
  SyncA_c3_c1_c2: 3.0 o_3 + 100.0 x_c3_c1 - tauD_c1 - 5.8575 z_c3_c2 + [ tauS_c2 * z_c3_c2 ] <= 94.6975
  SyncA_c3_c1_c4: 3.0 o_3 + 100.0 x_c3_c1 - tauD_c1 - 8.25 z_c3_c4 + [ tauS_c4 * z_c3_c4 ] <= 94.6975
  SyncA_c3_c1_c5: 3.0 o_3 + 100.0 x_c3_c1 - tauD_c1 - 8.9025 z_c3_c5 + [ tauS_c5 * z_c3_c5 ] <= 94.6975
  SyncA_c3_c1_dN: 3.0 o_3 + 100.0 x_c3_c1 - tauD_c1 - 6.62 z_c3_dN + [ tauS_dN * z_c3_dN ] <= 94.6975
  SyncA_c3_c2_c1: 3.0 o_3 + 100.0 x_c3_c2 - tauD_c2 - 5.3025 z_c3_c1 + [ tauS_c1 * z_c3_c1 ] <= 94.1425
  SyncA_c3_c2_c2: 3.0 o_3 + 100.0 x_c3_c2 - tauD_c2 - 5.8575 z_c3_c2 + [ tauS_c2 * z_c3_c2 ] <= 94.1425
  SyncA_c3_c2_c4: 3.0 o_3 + 100.0 x_c3_c2 - tauD_c2 - 8.25 z_c3_c4 + [ tauS_c4 * z_c3_c4 ] <= 94.1425
  SyncA_c3_c2_c5: 3.0 o_3 + 100.0 x_c3_c2 - tauD_c2 - 8.9025 z_c3_c5 + [ tauS_c5 * z_c3_c5 ] <= 94.1425
  SyncA_c3_c2_dN: 3.0 o_3 + 100.0 x_c3_c2 - tauD_c2 - 6.62 z_c3_dN + [ tauS_dN * z_c3_dN ] <= 94.1425
  SyncA_c3_c4_c1: 3.0 o_3 + 100.0 x_c3_c4 - tauD_c4 - 5.3025 z_c3_c1 + [ tauS_c1 * z_c3_c1 ] <= 91.75
  SyncA_c3_c4_c2: 3.0 o_3 + 100.0 x_c3_c4 - tauD_c4 - 5.8575 z_c3_c2 + [ tauS_c2 * z_c3_c2 ] <= 91.75
  SyncA_c3_c4_c4: 3.0 o_3 + 100.0 x_c3_c4 - tauD_c4 - 8.25 z_c3_c4 + [ tauS_c4 * z_c3_c4 ] <= 91.75
  SyncA_c3_c4_c5: 3.0 o_3 + 100.0 x_c3_c4 - tauD_c4 - 8.9025 z_c3_c5 + [ tauS_c5 * z_c3_c5 ] <= 91.75
  SyncA_c3_c4_dN: 3.0 o_3 + 100.0 x_c3_c4 - tauD_c4 - 6.62 z_c3_dN + [ tauS_dN * z_c3_dN ] <= 91.75
  SyncA_c3_c5_c1: 3.0 o_3 + 100.0 x_c3_c5 - tauD_c5 - 5.3025 z_c3_c1 + [ tauS_c1 * z_c3_c1 ] <= 91.0975
  SyncA_c3_c5_c2: 3.0 o_3 + 100.0 x_c3_c5 - tauD_c5 - 5.8575 z_c3_c2 + [ tauS_c2 * z_c3_c2 ] <= 91.0975
  SyncA_c3_c5_c4: 3.0 o_3 + 100.0 x_c3_c5 - tauD_c5 - 8.25 z_c3_c4 + [ tauS_c4 * z_c3_c4 ] <= 91.0975
  SyncA_c3_c5_c5: 3.0 o_3 + 100.0 x_c3_c5 - tauD_c5 - 8.9025 z_c3_c5 + [ tauS_c5 * z_c3_c5 ] <= 91.0975
  SyncA_c3_c5_dN: 3.0 o_3 + 100.0 x_c3_c5 - tauD_c5 - 6.62 z_c3_dN + [ tauS_dN * z_c3_dN ] <= 91.0975
  SyncA_c3_dN_c1: 3.0 o_3 + 100.0 x_c3_dN - tauD_dN - 5.3025 z_c3_c1 + [ tauS_c1 * z_c3_c1 ] <= 93.38
  SyncA_c3_dN_c2: 3.0 o_3 + 100.0 x_c3_dN - tauD_dN - 5.8575 z_c3_c2 + [ tauS_c2 * z_c3_c2 ] <= 93.38
  SyncA_c3_dN_c4: 3.0 o_3 + 100.0 x_c3_dN - tauD_dN - 8.25 z_c3_c4 + [ tauS_c4 * z_c3_c4 ] <= 93.38
  SyncA_c3_dN_c5: 3.0 o_3 + 100.0 x_c3_dN - tauD_dN - 8.9025 z_c3_c5 + [ tauS_c5 * z_c3_c5 ] <= 93.38
  SyncA_c3_dN_dN: 3.0 o_3 + 100.0 x_c3_dN - tauD_dN - 6.62 z_c3_dN + [ tauS_dN * z_c3_dN ] <= 93.38
  SyncA_c4_c1_c1: 5.0 o_4 + 100.0 x_c4_c1 - tauD_c1 - 5.8575 z_c4_c1 + [ tauS_c1 * z_c4_c1 ] <= 94.1425
  SyncA_c4_c1_c2: 5.0 o_4 + 100.0 x_c4_c1 - tauD_c1 - 6.365 z_c4_c2 + [ tauS_c2 * z_c4_c2 ] <= 94.1425
  SyncA_c4_c1_c3: 5.0 o_4 + 100.0 x_c4_c1 - tauD_c1 - 8.25 z_c4_c3 + [ tauS_c3 * z_c4_c3 ] <= 94.1425
  SyncA_c4_c1_c5: 5.0 o_4 + 100.0 x_c4_c1 - tauD_c1 - 5.64 z_c4_c5 + [ tauS_c5 * z_c4_c5 ] <= 94.1425
  SyncA_c4_c1_dN: 5.0 o_4 + 100.0 x_c4_c1 - tauD_c1 - 2.15 z_c4_dN + [ tauS_dN * z_c4_dN ] <= 94.1425
  SyncA_c4_c2_c1: 5.0 o_4 + 100.0 x_c4_c2 - tauD_c2 - 5.8575 z_c4_c1 + [ tauS_c1 * z_c4_c1 ] <= 93.635
  SyncA_c4_c2_c2: 5.0 o_4 + 100.0 x_c4_c2 - tauD_c2 - 6.365 z_c4_c2 + [ tauS_c2 * z_c4_c2 ] <= 93.635
  SyncA_c4_c2_c3: 5.0 o_4 + 100.0 x_c4_c2 - tauD_c2 - 8.25 z_c4_c3 + [ tauS_c3 * z_c4_c3 ] <= 93.635
  SyncA_c4_c2_c5: 5.0 o_4 + 100.0 x_c4_c2 - tauD_c2 - 5.64 z_c4_c5 + [ tauS_c5 * z_c4_c5 ] <= 93.635
  SyncA_c4_c2_dN: 5.0 o_4 + 100.0 x_c4_c2 - tauD_c2 - 2.15 z_c4_dN + [ tauS_dN * z_c4_dN ] <= 93.635
  SyncA_c4_c3_c1: 5.0 o_4 + 100.0 x_c4_c3 - tauD_c3 - 5.8575 z_c4_c1 + [ tauS_c1 * z_c4_c1 ] <= 91.75
  SyncA_c4_c3_c2: 5.0 o_4 + 100.0 x_c4_c3 - tauD_c3 - 6.365 z_c4_c2 + [ tauS_c2 * z_c4_c2 ] <= 91.75
  SyncA_c4_c3_c3: 5.0 o_4 + 100.0 x_c4_c3 - tauD_c3 - 8.25 z_c4_c3 + [ tauS_c3 * z_c4_c3 ] <= 91.75
  SyncA_c4_c3_c5: 5.0 o_4 + 100.0 x_c4_c3 - tauD_c3 - 5.64 z_c4_c5 + [ tauS_c5 * z_c4_c5 ] <= 91.75
  SyncA_c4_c3_dN: 5.0 o_4 + 100.0 x_c4_c3 - tauD_c3 - 2.15 z_c4_dN + [ tauS_dN * z_c4_dN ] <= 91.75
  SyncA_c4_c5_c1: 5.0 o_4 + 100.0 x_c4_c5 - tauD_c5 - 5.8575 z_c4_c1 + [ tauS_c1 * z_c4_c1 ] <= 94.36
  SyncA_c4_c5_c2: 5.0 o_4 + 100.0 x_c4_c5 - tauD_c5 - 6.365 z_c4_c2 + [ tauS_c2 * z_c4_c2 ] <= 94.36
  SyncA_c4_c5_c3: 5.0 o_4 + 100.0 x_c4_c5 - tauD_c5 - 8.25 z_c4_c3 + [ tauS_c3 * z_c4_c3 ] <= 94.36
  SyncA_c4_c5_c5: 5.0 o_4 + 100.0 x_c4_c5 - tauD_c5 - 5.64 z_c4_c5 + [ tauS_c5 * z_c4_c5 ] <= 94.36
  SyncA_c4_c5_dN: 5.0 o_4 + 100.0 x_c4_c5 - tauD_c5 - 2.15 z_c4_dN + [ tauS_dN * z_c4_dN ] <= 94.36
  SyncA_c4_dN_c1: 5.0 o_4 + 100.0 x_c4_dN - tauD_dN - 5.8575 z_c4_c1 + [ tauS_c1 * z_c4_c1 ] <= 97.85
  SyncA_c4_dN_c2: 5.0 o_4 + 100.0 x_c4_dN - tauD_dN - 6.365 z_c4_c2 + [ tauS_c2 * z_c4_c2 ] <= 97.85
  SyncA_c4_dN_c3: 5.0 o_4 + 100.0 x_c4_dN - tauD_dN - 8.25 z_c4_c3 + [ tauS_c3 * z_c4_c3 ] <= 97.85
  SyncA_c4_dN_c5: 5.0 o_4 + 100.0 x_c4_dN - tauD_dN - 5.64 z_c4_c5 + [ tauS_c5 * z_c4_c5 ] <= 97.85
  SyncA_c4_dN_dN: 5.0 o_4 + 100.0 x_c4_dN - tauD_dN - 2.15 z_c4_dN + [ tauS_dN * z_c4_dN ] <= 97.85
  SyncA_c5_c1_c1: 5.0 o_5 + 100.0 x_c5_c1 - tauD_c1 - 9.805 z_c5_c1 + [ tauS_c1 * z_c5_c1 ] <= 90.195
  SyncA_c5_c1_c2: 5.0 o_5 + 100.0 x_c5_c1 - tauD_c1 - 3.4 z_c5_c2 + [ tauS_c2 * z_c5_c2 ] <= 90.195
  SyncA_c5_c1_c3: 5.0 o_5 + 100.0 x_c5_c1 - tauD_c1 - 8.9025 z_c5_c3 + [ tauS_c3 * z_c5_c3 ] <= 90.195
  SyncA_c5_c1_c4: 5.0 o_5 + 100.0 x_c5_c1 - tauD_c1 - 5.64 z_c5_c4 + [ tauS_c4 * z_c5_c4 ] <= 90.195
  SyncA_c5_c1_dN: 5.0 o_5 + 100.0 x_c5_c1 - tauD_c1 - 6.7675 z_c5_dN + [ tauS_dN * z_c5_dN ] <= 90.195
  SyncA_c5_c2_c1: 5.0 o_5 + 100.0 x_c5_c2 - tauD_c2 - 9.805 z_c5_c1 + [ tauS_c1 * z_c5_c1 ] <= 96.6
  SyncA_c5_c2_c2: 5.0 o_5 + 100.0 x_c5_c2 - tauD_c2 - 3.4 z_c5_c2 + [ tauS_c2 * z_c5_c2 ] <= 96.6
  SyncA_c5_c2_c3: 5.0 o_5 + 100.0 x_c5_c2 - tauD_c2 - 8.9025 z_c5_c3 + [ tauS_c3 * z_c5_c3 ] <= 96.6
  SyncA_c5_c2_c4: 5.0 o_5 + 100.0 x_c5_c2 - tauD_c2 - 5.64 z_c5_c4 + [ tauS_c4 * z_c5_c4 ] <= 96.6
  SyncA_c5_c2_dN: 5.0 o_5 + 100.0 x_c5_c2 - tauD_c2 - 6.7675 z_c5_dN + [ tauS_dN * z_c5_dN ] <= 96.6
  SyncA_c5_c3_c1: 5.0 o_5 + 100.0 x_c5_c3 - tauD_c3 - 9.805 z_c5_c1 + [ tauS_c1 * z_c5_c1 ] <= 91.0975
  SyncA_c5_c3_c2: 5.0 o_5 + 100.0 x_c5_c3 - tauD_c3 - 3.4 z_c5_c2 + [ tauS_c2 * z_c5_c2 ] <= 91.0975
  SyncA_c5_c3_c3: 5.0 o_5 + 100.0 x_c5_c3 - tauD_c3 - 8.9025 z_c5_c3 + [ tauS_c3 * z_c5_c3 ] <= 91.0975
  SyncA_c5_c3_c4: 5.0 o_5 + 100.0 x_c5_c3 - tauD_c3 - 5.64 z_c5_c4 + [ tauS_c4 * z_c5_c4 ] <= 91.0975
  SyncA_c5_c3_dN: 5.0 o_5 + 100.0 x_c5_c3 - tauD_c3 - 6.7675 z_c5_dN + [ tauS_dN * z_c5_dN ] <= 91.0975
  SyncA_c5_c4_c1: 5.0 o_5 + 100.0 x_c5_c4 - tauD_c4 - 9.805 z_c5_c1 + [ tauS_c1 * z_c5_c1 ] <= 94.36
  SyncA_c5_c4_c2: 5.0 o_5 + 100.0 x_c5_c4 - tauD_c4 - 3.4 z_c5_c2 + [ tauS_c2 * z_c5_c2 ] <= 94.36
  SyncA_c5_c4_c3: 5.0 o_5 + 100.0 x_c5_c4 - tauD_c4 - 8.9025 z_c5_c3 + [ tauS_c3 * z_c5_c3 ] <= 94.36
  SyncA_c5_c4_c4: 5.0 o_5 + 100.0 x_c5_c4 - tauD_c4 - 5.64 z_c5_c4 + [ tauS_c4 * z_c5_c4 ] <= 94.36
  SyncA_c5_c4_dN: 5.0 o_5 + 100.0 x_c5_c4 - tauD_c4 - 6.7675 z_c5_dN + [ tauS_dN * z_c5_dN ] <= 94.36
  SyncA_c5_dN_c1: 5.0 o_5 + 100.0 x_c5_dN - tauD_dN - 9.805 z_c5_c1 + [ tauS_c1 * z_c5_c1 ] <= 93.2325
  SyncA_c5_dN_c2: 5.0 o_5 + 100.0 x_c5_dN - tauD_dN - 3.4 z_c5_c2 + [ tauS_c2 * z_c5_c2 ] <= 93.2325
  SyncA_c5_dN_c3: 5.0 o_5 + 100.0 x_c5_dN - tauD_dN - 8.9025 z_c5_c3 + [ tauS_c3 * z_c5_c3 ] <= 93.2325
  SyncA_c5_dN_c4: 5.0 o_5 + 100.0 x_c5_dN - tauD_dN - 5.64 z_c5_c4 + [ tauS_c4 * z_c5_c4 ] <= 93.2325
  SyncA_c5_dN_dN: 5.0 o_5 + 100.0 x_c5_dN - tauD_dN - 6.7675 z_c5_dN + [ tauS_dN * z_c5_dN ] <= 93.2325
  SVFirst_c1_c2: tauS_c2 - tauD_c1 + 5.0 o_1 - 100.0 z_c1_c2 >= -78.75
  SVFirst_c1_c3: tauS_c3 - tauD_c1 + 5.0 o_1 - 100.0 z_c1_c3 >= -81.6975
  SVFirst_c1_c4: tauS_c4 - tauD_c1 + 5.0 o_1 - 100.0 z_c1_c4 >= -81.1425
  SVFirst_c1_c5: tauS_c5 - tauD_c1 + 5.0 o_1 - 100.0 z_c1_c5 >= -77.195
  SVFirst_c1_dN:  tauS_dN - tauD_c1 + 5.0 o_1 - 100.0 z_c1_dN >= -83.2825
  SVFirst_c2_c1: tauS_c1 - tauD_c2 + 6.0 o_2 - 100.0 z_c2_c1 >= -77.75
  SVFirst_c2_c3: tauS_c3 - tauD_c2 + 6.0 o_2 - 100.0 z_c2_c3 >= -80.1425
  SVFirst_c2_c4: tauS_c4 - tauD_c2 + 6.0 o_2 - 100.0 z_c2_c4 >= -79.635
  SVFirst_c2_c5: tauS_c5 - tauD_c2 + 6.0 o_2 - 100.0 z_c2_c5 >= -82.6
  SVFirst_c2_dN:  tauS_dN - tauD_c2 + 6.0 o_2 - 100.0 z_c2_dN >= -79.625
  SVFirst_c3_c1: tauS_c1 - tauD_c3 + 3.0 o_3 - 100.0 z_c3_c1 >= -83.6975
  SVFirst_c3_c2: tauS_c2 - tauD_c3 + 3.0 o_3 - 100.0 z_c3_c2 >= -83.1425
  SVFirst_c3_c4: tauS_c4 - tauD_c3 + 3.0 o_3 - 100.0 z_c3_c4 >= -80.75
  SVFirst_c3_c5: tauS_c5 - tauD_c3 + 3.0 o_3 - 100.0 z_c3_c5 >= -80.0975
  SVFirst_c3_dN:  tauS_dN - tauD_c3 + 3.0 o_3 - 100.0 z_c3_dN >= -82.38
  SVFirst_c4_c1: tauS_c1 - tauD_c4 + 5.0 o_4 - 100.0 z_c4_c1 >= -81.1425
  SVFirst_c4_c2: tauS_c2 - tauD_c4 + 5.0 o_4 - 100.0 z_c4_c2 >= -80.635
  SVFirst_c4_c3: tauS_c3 - tauD_c4 + 5.0 o_4 - 100.0 z_c4_c3 >= -78.75
  SVFirst_c4_c5: tauS_c5 - tauD_c4 + 5.0 o_4 - 100.0 z_c4_c5 >= -81.36
  SVFirst_c4_dN:  tauS_dN - tauD_c4 + 5.0 o_4 - 100.0 z_c4_dN >= -84.85
  SVFirst_c5_c1: tauS_c1 - tauD_c5 + 5.0 o_5 - 100.0 z_c5_c1 >= -77.195
  SVFirst_c5_c2: tauS_c2 - tauD_c5 + 5.0 o_5 - 100.0 z_c5_c2 >= -83.6
  SVFirst_c5_c3: tauS_c3 - tauD_c5 + 5.0 o_5 - 100.0 z_c5_c3 >= -78.0975
  SVFirst_c5_c4: tauS_c4 - tauD_c5 + 5.0 o_5 - 100.0 z_c5_c4 >= -81.36
  SVFirst_c5_dN:  tauS_dN - tauD_c5 + 5.0 o_5 - 100.0 z_c5_dN >= -80.2325
  Precedence_Swap_c1:  p_1 - z_d0_c1 - z_c2_c1 - z_c3_c1 - z_c4_c1 - z_c5_c1 = 0
  Precedence_Swap_c2:  p_2 - z_d0_c2 - z_c1_c2 - z_c3_c2 - z_c4_c2 - z_c5_c2 = 0
  Precedence_Swap_c3:  p_3 - z_d0_c3 - z_c1_c3 - z_c2_c3 - z_c4_c3 - z_c5_c3 = 0
  Precedence_Swap_c4:  p_4 - z_d0_c4 - z_c1_c4 - z_c2_c4 - z_c3_c4 - z_c5_c4 = 0
  Precedence_Swap_c5:  p_5 - z_d0_c5 - z_c1_c5 - z_c2_c5 - z_c3_c5 - z_c4_c5 = 0
  Order_c1:  o_1 - p_1 <= 0
  Order_c2:  o_2 - p_2 <= 0
  Order_c3:  o_3 - p_3 <= 0
  Order_c4:  o_4 - p_4 <= 0
  Order_c5:  o_5 - p_5 <= 0
  WorkingTimeS_c1:  tauS_c1 <= 88.2825
  WorkingTimeS_c2:  tauS_c2 <= 85.625
  WorkingTimeS_c3:  tauS_c3 <= 85.38
  WorkingTimeS_c4:  tauS_c4 <= 89.85
  WorkingTimeS_c5:  tauS_c5 <= 85.2325
  FreightDV_c1_c2:  k_c2 - kDash_c1 - 10.0 p_1 + 10.0 x_c1_c2 + [ kDash_c1 * p_1 - kDash_c1 * o_1 + 10.0 p_1 * o_1 ] <= 10.0
  FreightDV_c1_c3:  k_c3 - kDash_c1 - 10.0 p_1 + 10.0 x_c1_c3 + [ kDash_c1 * p_1 - kDash_c1 * o_1 + 10.0 p_1 * o_1 ] <= 10.0
  FreightDV_c1_c4:  k_c4 - kDash_c1 - 10.0 p_1 + 10.0 x_c1_c4 + [ kDash_c1 * p_1 - kDash_c1 * o_1 + 10.0 p_1 * o_1 ] <= 10.0
  FreightDV_c1_c5:  k_c5 - kDash_c1 - 10.0 p_1 + 10.0 x_c1_c5 + [ kDash_c1 * p_1 - kDash_c1 * o_1 + 10.0 p_1 * o_1 ] <= 10.0
  FreightDV_c1_dN:  k_dN - kDash_c1 - 10.0 p_1 + 10.0 x_c1_dN + [ kDash_c1 * p_1 - kDash_c1 * o_1 + 10.0 p_1 * o_1 ] <= 10.0
  FreightDV_c1:  kDash_c1 - k_c1 - 10.0 o_1 + [ k_c1 * o_1 ] <= -6.0
  FreightDV_c2_c1:  k_c1 - kDash_c2 - 10.0 p_2 + 10.0 x_c2_c1 + [ kDash_c2 * p_2 - kDash_c2 * o_2 + 10.0 p_2 * o_2 ] <= 10.0
  FreightDV_c2_c3:  k_c3 - kDash_c2 - 10.0 p_2 + 10.0 x_c2_c3 + [ kDash_c2 * p_2 - kDash_c2 * o_2 + 10.0 p_2 * o_2 ] <= 10.0
  FreightDV_c2_c4:  k_c4 - kDash_c2 - 10.0 p_2 + 10.0 x_c2_c4 + [ kDash_c2 * p_2 - kDash_c2 * o_2 + 10.0 p_2 * o_2 ] <= 10.0
  FreightDV_c2_c5:  k_c5 - kDash_c2 - 10.0 p_2 + 10.0 x_c2_c5 + [ kDash_c2 * p_2 - kDash_c2 * o_2 + 10.0 p_2 * o_2 ] <= 10.0
  FreightDV_c2_dN:  k_dN - kDash_c2 - 10.0 p_2 + 10.0 x_c2_dN + [ kDash_c2 * p_2 - kDash_c2 * o_2 + 10.0 p_2 * o_2 ] <= 10.0
  FreightDV_c2:  kDash_c2 - k_c2 - 10.0 o_2 + [ k_c2 * o_2 ] <= -5.0
  FreightDV_c3_c1:  k_c1 - kDash_c3 - 10.0 p_3 + 10.0 x_c3_c1 + [ kDash_c3 * p_3 - kDash_c3 * o_3 + 10.0 p_3 * o_3 ] <= 10.0
  FreightDV_c3_c2:  k_c2 - kDash_c3 - 10.0 p_3 + 10.0 x_c3_c2 + [ kDash_c3 * p_3 - kDash_c3 * o_3 + 10.0 p_3 * o_3 ] <= 10.0
  FreightDV_c3_c4:  k_c4 - kDash_c3 - 10.0 p_3 + 10.0 x_c3_c4 + [ kDash_c3 * p_3 - kDash_c3 * o_3 + 10.0 p_3 * o_3 ] <= 10.0
  FreightDV_c3_c5:  k_c5 - kDash_c3 - 10.0 p_3 + 10.0 x_c3_c5 + [ kDash_c3 * p_3 - kDash_c3 * o_3 + 10.0 p_3 * o_3 ] <= 10.0
  FreightDV_c3_dN:  k_dN - kDash_c3 - 10.0 p_3 + 10.0 x_c3_dN + [ kDash_c3 * p_3 - kDash_c3 * o_3 + 10.0 p_3 * o_3 ] <= 10.0
  FreightDV_c3:  kDash_c3 - k_c3 - 10.0 o_3 + [ k_c3 * o_3 ] <= -2.0
  FreightDV_c4_c1:  k_c1 - kDash_c4 - 10.0 p_4 + 10.0 x_c4_c1 + [ kDash_c4 * p_4 - kDash_c4 * o_4 + 10.0 p_4 * o_4 ] <= 10.0
  FreightDV_c4_c2:  k_c2 - kDash_c4 - 10.0 p_4 + 10.0 x_c4_c2 + [ kDash_c4 * p_4 - kDash_c4 * o_4 + 10.0 p_4 * o_4 ] <= 10.0
  FreightDV_c4_c3:  k_c3 - kDash_c4 - 10.0 p_4 + 10.0 x_c4_c3 + [ kDash_c4 * p_4 - kDash_c4 * o_4 + 10.0 p_4 * o_4 ] <= 10.0
  FreightDV_c4_c5:  k_c5 - kDash_c4 - 10.0 p_4 + 10.0 x_c4_c5 + [ kDash_c4 * p_4 - kDash_c4 * o_4 + 10.0 p_4 * o_4 ] <= 10.0
  FreightDV_c4_dN:  k_dN - kDash_c4 - 10.0 p_4 + 10.0 x_c4_dN + [ kDash_c4 * p_4 - kDash_c4 * o_4 + 10.0 p_4 * o_4 ] <= 10.0
  FreightDV_c4:  kDash_c4 - k_c4 - 10.0 o_4 + [ k_c4 * o_4 ] <= -4.0
  FreightDV_c5_c1:  k_c1 - kDash_c5 - 10.0 p_5 + 10.0 x_c5_c1 + [ kDash_c5 * p_5 - kDash_c5 * o_5 + 10.0 p_5 * o_5 ] <= 10.0
  FreightDV_c5_c2:  k_c2 - kDash_c5 - 10.0 p_5 + 10.0 x_c5_c2 + [ kDash_c5 * p_5 - kDash_c5 * o_5 + 10.0 p_5 * o_5 ] <= 10.0
  FreightDV_c5_c3:  k_c3 - kDash_c5 - 10.0 p_5 + 10.0 x_c5_c3 + [ kDash_c5 * p_5 - kDash_c5 * o_5 + 10.0 p_5 * o_5 ] <= 10.0
  FreightDV_c5_c4:  k_c4 - kDash_c5 - 10.0 p_5 + 10.0 x_c5_c4 + [ kDash_c5 * p_5 - kDash_c5 * o_5 + 10.0 p_5 * o_5 ] <= 10.0
  FreightDV_c5_dN:  k_dN - kDash_c5 - 10.0 p_5 + 10.0 x_c5_dN + [ kDash_c5 * p_5 - kDash_c5 * o_5 + 10.0 p_5 * o_5 ] <= 10.0
  FreightDV_c5:  kDash_c5 - k_c5 - 10.0 o_5 + [ k_c5 * o_5 ] <= -6.0
  FreightSV_c1_c2:  pi_c2 - pi_c1 - kDash_c1 + 20.0 z_c1_c2 + [ kDash_c1 * o_1 - k_c1 * o_1 ] <= 10.0
  FreightSV_c1_c3:  pi_c3 - pi_c1 - kDash_c1 + 20.0 z_c1_c3 + [ kDash_c1 * o_1 - k_c1 * o_1 ] <= 10.0
  FreightSV_c1_c4:  pi_c4 - pi_c1 - kDash_c1 + 20.0 z_c1_c4 + [ kDash_c1 * o_1 - k_c1 * o_1 ] <= 10.0
  FreightSV_c1_c5:  pi_c5 - pi_c1 - kDash_c1 + 20.0 z_c1_c5 + [ kDash_c1 * o_1 - k_c1 * o_1 ] <= 10.0
  FreightSV_c1_dN:  pi_dN - pi_c1 - kDash_c1 + 20.0 z_c1_dN + [ kDash_c1 * o_1 - k_c1 * o_1 ] <= 10.0
  FreightSV_c2_c1:  pi_c1 - pi_c2 - kDash_c2 + 20.0 z_c2_c1 + [ kDash_c2 * o_2 - k_c2 * o_2 ] <= 10.0
  FreightSV_c2_c3:  pi_c3 - pi_c2 - kDash_c2 + 20.0 z_c2_c3 + [ kDash_c2 * o_2 - k_c2 * o_2 ] <= 10.0
  FreightSV_c2_c4:  pi_c4 - pi_c2 - kDash_c2 + 20.0 z_c2_c4 + [ kDash_c2 * o_2 - k_c2 * o_2 ] <= 10.0
  FreightSV_c2_c5:  pi_c5 - pi_c2 - kDash_c2 + 20.0 z_c2_c5 + [ kDash_c2 * o_2 - k_c2 * o_2 ] <= 10.0
  FreightSV_c2_dN:  pi_dN - pi_c2 - kDash_c2 + 20.0 z_c2_dN + [ kDash_c2 * o_2 - k_c2 * o_2 ] <= 10.0
  FreightSV_c3_c1:  pi_c1 - pi_c3 - kDash_c3 + 20.0 z_c3_c1 + [ kDash_c3 * o_3 - k_c3 * o_3 ] <= 10.0
  FreightSV_c3_c2:  pi_c2 - pi_c3 - kDash_c3 + 20.0 z_c3_c2 + [ kDash_c3 * o_3 - k_c3 * o_3 ] <= 10.0
  FreightSV_c3_c4:  pi_c4 - pi_c3 - kDash_c3 + 20.0 z_c3_c4 + [ kDash_c3 * o_3 - k_c3 * o_3 ] <= 10.0
  FreightSV_c3_c5:  pi_c5 - pi_c3 - kDash_c3 + 20.0 z_c3_c5 + [ kDash_c3 * o_3 - k_c3 * o_3 ] <= 10.0
  FreightSV_c3_dN:  pi_dN - pi_c3 - kDash_c3 + 20.0 z_c3_dN + [ kDash_c3 * o_3 - k_c3 * o_3 ] <= 10.0
  FreightSV_c4_c1:  pi_c1 - pi_c4 - kDash_c4 + 20.0 z_c4_c1 + [ kDash_c4 * o_4 - k_c4 * o_4 ] <= 10.0
  FreightSV_c4_c2:  pi_c2 - pi_c4 - kDash_c4 + 20.0 z_c4_c2 + [ kDash_c4 * o_4 - k_c4 * o_4 ] <= 10.0
  FreightSV_c4_c3:  pi_c3 - pi_c4 - kDash_c4 + 20.0 z_c4_c3 + [ kDash_c4 * o_4 - k_c4 * o_4 ] <= 10.0
  FreightSV_c4_c5:  pi_c5 - pi_c4 - kDash_c4 + 20.0 z_c4_c5 + [ kDash_c4 * o_4 - k_c4 * o_4 ] <= 10.0
  FreightSV_c4_dN:  pi_dN - pi_c4 - kDash_c4 + 20.0 z_c4_dN + [ kDash_c4 * o_4 - k_c4 * o_4 ] <= 10.0
  FreightSV_c5_c1:  pi_c1 - pi_c5 - kDash_c5 + 20.0 z_c5_c1 + [ kDash_c5 * o_5 - k_c5 * o_5 ] <= 10.0
  FreightSV_c5_c2:  pi_c2 - pi_c5 - kDash_c5 + 20.0 z_c5_c2 + [ kDash_c5 * o_5 - k_c5 * o_5 ] <= 10.0
  FreightSV_c5_c3:  pi_c3 - pi_c5 - kDash_c5 + 20.0 z_c5_c3 + [ kDash_c5 * o_5 - k_c5 * o_5 ] <= 10.0
  FreightSV_c5_c4:  pi_c4 - pi_c5 - kDash_c5 + 20.0 z_c5_c4 + [ kDash_c5 * o_5 - k_c5 * o_5 ] <= 10.0
  FreightSV_c5_dN:  pi_dN - pi_c5 - kDash_c5 + 20.0 z_c5_dN + [ kDash_c5 * o_5 - k_c5 * o_5 ] <= 10.0
  FuelDV_d0_c1:  phi_c1 - phi_d0 + 12.9948 x_d0_c1 <= 12.0
  FuelDV_d0_c2:  phi_c2 - phi_d0 + 13.706 x_d0_c2 <= 12.0
  FuelDV_d0_c3:  phi_c3 - phi_d0 + 13.7715 x_d0_c3 <= 12.0
  FuelDV_d0_c4:  phi_c4 - phi_d0 + 12.5753 x_d0_c4 <= 12.0
  FuelDV_d0_c5:  phi_c5 - phi_d0 + 13.811 x_d0_c5 <= 12.0
  FuelDV_c1_c2:  phi_c2 - phi_c1 + 14.207699999999999 x_c1_c2 <= 12.0
  FuelDV_c1_c3:  phi_c3 - phi_c1 + 13.4189 x_c1_c3 <= 12.0
  FuelDV_c1_c4:  phi_c4 - phi_c1 + 13.567499999999999 x_c1_c4 <= 12.0
  FuelDV_c1_c5:  phi_c5 - phi_c1 + 14.6238 x_c1_c5 <= 12.0
  FuelDV_c1_dN:  phi_dN - phi_c1 + 12.9948 x_c1_dN <= 12.0
  FuelDV_c2_c1:  phi_c1 - phi_c2 + 14.207699999999999 x_c2_c1 <= 12.0
  FuelDV_c2_c3:  phi_c3 - phi_c2 + 13.567499999999999 x_c2_c3 <= 12.0
  FuelDV_c2_c4:  phi_c4 - phi_c2 + 13.7033 x_c2_c4 <= 12.0
  FuelDV_c2_c5:  phi_c5 - phi_c2 + 12.9098 x_c2_c5 <= 12.0
  FuelDV_c2_dN:  phi_dN - phi_c2 + 13.706 x_c2_dN <= 12.0
  FuelDV_c3_c1:  phi_c1 - phi_c3 + 13.4189 x_c3_c1 <= 12.0
  FuelDV_c3_c2:  phi_c2 - phi_c3 + 13.567499999999999 x_c3_c2 <= 12.0
  FuelDV_c3_c4:  phi_c4 - phi_c3 + 14.207699999999999 x_c3_c4 <= 12.0
  FuelDV_c3_c5:  phi_c5 - phi_c3 + 14.3823 x_c3_c5 <= 12.0
  FuelDV_c3_dN:  phi_dN - phi_c3 + 13.7715 x_c3_dN <= 12.0
  FuelDV_c4_c1:  phi_c1 - phi_c4 + 13.567499999999999 x_c4_c1 <= 12.0
  FuelDV_c4_c2:  phi_c2 - phi_c4 + 13.7033 x_c4_c2 <= 12.0
  FuelDV_c4_c3:  phi_c3 - phi_c4 + 14.207699999999999 x_c4_c3 <= 12.0
  FuelDV_c4_c5:  phi_c5 - phi_c4 + 13.5093 x_c4_c5 <= 12.0
  FuelDV_c4_dN:  phi_dN - phi_c4 + 12.5753 x_c4_dN <= 12.0
  FuelDV_c5_c1:  phi_c1 - phi_c5 + 14.6238 x_c5_c1 <= 12.0
  FuelDV_c5_c2:  phi_c2 - phi_c5 + 12.9098 x_c5_c2 <= 12.0
  FuelDV_c5_c3:  phi_c3 - phi_c5 + 14.3823 x_c5_c3 <= 12.0
  FuelDV_c5_c4:  phi_c4 - phi_c5 + 13.5093 x_c5_c4 <= 12.0
  FuelDV_c5_dN:  phi_dN - phi_c5 + 13.811 x_c5_dN <= 12.0
  WorkingTimeD_c1:  tauD_c1 + 8.0 p_1 <= 91.2825
  WorkingTimeD_c2:  tauD_c2 + 8.0 p_2 <= 87.625
  WorkingTimeD_c3:  tauD_c3 + 8.0 p_3 <= 90.38
  WorkingTimeD_c4:  tauD_c4 + 8.0 p_4 <= 92.85
  WorkingTimeD_c5:  tauD_c5 + 8.0 p_5 <= 88.2325
Bounds
0 <= kDash_c1 <= 10.0
0 <= kDash_c2 <= 10.0
0 <= kDash_c3 <= 10.0
0 <= kDash_c4 <= 10.0
0 <= kDash_c5 <= 10.0
0 <= kDash_dN <= 10.0
0 <= k_c1 <= 10.0
0 <= k_c2 <= 10.0
0 <= k_c3 <= 10.0
0 <= k_c4 <= 10.0
0 <= k_c5 <= 10.0
0 <= k_dN <= 10.0
0 <= phi_c1 <= 12.0
0 <= phi_c2 <= 12.0
0 <= phi_c3 <= 12.0
0 <= phi_c4 <= 12.0
0 <= phi_c5 <= 12.0
0 <= phi_d0 <= 12.0
0 <= phi_dN <= 12.0
0 <= pi_c1 <= 50.0
0 <= pi_c2 <= 50.0
0 <= pi_c3 <= 50.0
0 <= pi_c4 <= 50.0
0 <= pi_c5 <= 50.0
0 <= pi_dN <= 50.0
0 <= tauD_c1 <= 100.0
0 <= tauD_c2 <= 100.0
0 <= tauD_c3 <= 100.0
0 <= tauD_c4 <= 100.0
0 <= tauD_c5 <= 100.0
0 <= tauD_d0 <= 100.0
0 <= tauD_dN <= 100.0
0 <= tauS_c1 <= 100.0
0 <= tauS_c2 <= 100.0
0 <= tauS_c3 <= 100.0
0 <= tauS_c4 <= 100.0
0 <= tauS_c5 <= 100.0
0 <= tauS_d0 <= 100.0
0 <= tauS_dN <= 100.0
Generals
  kDash_c1
  kDash_c2
  kDash_c3
  kDash_c4
  kDash_c5
  kDash_dN
  k_c1
  k_c2
  k_c3
  k_c4
  k_c5
  k_dN
  phi_c1
  phi_c2
  phi_c3
  phi_c4
  phi_c5
  phi_d0
  phi_dN
  pi_c1
  pi_c2
  pi_c3
  pi_c4
  pi_c5
  pi_dN
  tauD_c1
  tauD_c2
  tauD_c3
  tauD_c4
  tauD_c5
  tauD_d0
  tauD_dN
  tauS_c1
  tauS_c2
  tauS_c3
  tauS_c4
  tauS_c5
  tauS_d0
  tauS_dN
Binary
  o_1
  o_2
  o_3
  o_4
  o_5
  p_1
  p_2
  p_3
  p_4
  p_5
  x_c1_c2
  x_c1_c3
  x_c1_c4
  x_c1_c5
  x_c1_dN
  x_c2_c1
  x_c2_c3
  x_c2_c4
  x_c2_c5
  x_c2_dN
  x_c3_c1
  x_c3_c2
  x_c3_c4
  x_c3_c5
  x_c3_dN
  x_c4_c1
  x_c4_c2
  x_c4_c3
  x_c4_c5
  x_c4_dN
  x_c5_c1
  x_c5_c2
  x_c5_c3
  x_c5_c4
  x_c5_dN
  x_d0_c1
  x_d0_c2
  x_d0_c3
  x_d0_c4
  x_d0_c5
  z_c1_c2
  z_c1_c3
  z_c1_c4
  z_c1_c5
  z_c1_dN
  z_c2_c1
  z_c2_c3
  z_c2_c4
  z_c2_c5
  z_c2_dN
  z_c3_c1
  z_c3_c2
  z_c3_c4
  z_c3_c5
  z_c3_dN
  z_c4_c1
  z_c4_c2
  z_c4_c3
  z_c4_c5
  z_c4_dN
  z_c5_c1
  z_c5_c2
  z_c5_c3
  z_c5_c4
  z_c5_dN
  z_d0_c1
  z_d0_c2
  z_d0_c3
  z_d0_c4
  z_d0_c5
End
