VRPTWMS/instances/mip/toDelete/freight_old/5/N5-C_DV10-C_SV50_F12_2_No_1.log

Gurobi 6.0.4 (win64) logging started 06/13/15 23:06:38

Warning: unknown variable 'kDash_dN' in bounds section
Read LP format model from file C:\MT\repository\VRPTWMS\instances\mip\freight\N5-C_DV10-C_SV50_F12_2_No_1.lp
Reading time = 0.00 seconds
(null): 161 rows, 110 columns, 603 nonzeros
Optimize a model with 161 rows, 110 columns and 603 nonzeros
Model has 180 quadratic constraints
WARNING: Only barrier available for SOCP models
Coefficient statistics:
  Matrix range    [1e+00, 1e+02]
  Objective range [9e+00, 1e+03]
  Bounds range    [1e+00, 1e+02]
  RHS range       [1e+00, 1e+02]
Presolve removed 20 rows and 8 columns
Presolve time: 0.02s
Presolved: 606 rows, 347 columns, 2643 nonzeros
Variable types: 220 continuous, 127 integer (93 binary)
Found heuristic solution: objective 5205.0400000
Optimize a model with 606 rows, 347 columns and 2643 nonzeros
Coefficient statistics:
  Matrix range    [1e+00, 1e+02]
  Objective range [9e+00, 1e+03]
  Bounds range    [1e+00, 1e+02]
  RHS range       [1e+00, 1e+02]
Presolve removed 35 rows and 20 columns
Presolved: 571 rows, 328 columns, 2488 nonzeros


Root relaxation: objective 1.046453e+02, 70 iterations, 0.00 seconds

    Nodes    |    Current Node    |     Objective Bounds      |     Work
 Expl Unexpl |  Obj  Depth IntInf | Incumbent    BestBd   Gap | It/Node Time

     0     0  104.64533    0   34 5205.04000  104.64533  98.0%     -    0s
H    0     0                    3171.7900000  104.64533  96.7%     -    0s
     0     0  139.90215    0   46 3171.79000  139.90215  95.6%     -    0s
H    0     0                    3163.3800000  139.90215  95.6%     -    0s
     0     0  146.09000    0   38 3163.38000  146.09000  95.4%     -    0s
     0     0  146.09000    0   44 3163.38000  146.09000  95.4%     -    0s
     0     0  146.09000    0   45 3163.38000  146.09000  95.4%     -    0s
     0     0  146.09000    0   33 3163.38000  146.09000  95.4%     -    0s
     0     0  146.09000    0   40 3163.38000  146.09000  95.4%     -    0s
     0     0  146.09000    0   40 3163.38000  146.09000  95.4%     -    0s
     0     2  146.09000    0   40 3163.38000  146.09000  95.4%     -    0s
H   16    13                    2240.6400000  168.75336  92.5%  38.0    0s
H  107    33                    2221.8800000  187.09749  91.6%  37.3    0s
*  124    32               6    2214.0900000  197.81333  91.1%  35.5    0s
H  171    30                    2206.8900000  210.94548  90.4%  34.5    0s
H  227    40                    2205.6200000  825.56703  62.6%  31.2    0s
*  975    61              13    2199.0100000 1217.89000  44.6%  28.9    0s
H 1044    37                    2197.6800000 1392.65053  36.6%  28.4    0s

Cutting planes:
  Gomory: 3
  Cover: 57
  Implied bound: 92
  Clique: 16
  MIR: 42
  Flow cover: 1
  GUB cover: 5
  Mod-K: 1

Explored 1222 nodes (32675 simplex iterations) in 0.78 seconds
Thread count was 2 (of 4 available processors)

Optimal solution found (tolerance 1.00e-04)
Best objective 2.197680000000e+03, best bound 2.197680000000e+03, gap 0.0%
k_c1	6.0
k_c2	10.0
k_c3	10.0
k_c4	-0.0
k_c5	8.0
k_dN	-0.0
kDash_c1	-0.0
kDash_c2	5.0
kDash_c3	8.0
kDash_c4	6.0
kDash_c5	-0.0
kDash_dN	-0.0
o_1	-0.0
o_2	-0.0
o_3	0.0
o_4	1.0
o_5	-0.0
p_1	0.0
p_2	-0.0
p_3	0.0
p_4	1.0
p_5	1.0
phi_c1	1.0
phi_c2	6.0
phi_c3	10.0
phi_c4	3.0
phi_c5	6.999999999999956
phi_d0	12.0
phi_dN	-0.0
pi_c1	10.0
pi_c2	5.0
pi_c3	2.0
pi_c4	10.0
pi_c5	20.0
pi_dN	-0.0
tauD_c1	80.0
tauD_c2	45.0
tauD_c3	7.0
tauD_c4	58.0
tauD_c5	19.000000000000114
tauD_d0	-0.0
tauD_dN	100.0
tauS_c1	-0.0
tauS_c2	83.0
tauS_c3	85.0
tauS_c4	47.0
tauS_c5	7.0
tauS_d0	-0.0
tauS_dN	71.0
x_c1_dN	1.0
x_c2_c4	1.0
x_c3_c5	1.0
x_c4_c1	1.0
x_c5_c2	1.0
x_d0_c3	1.0
z_c4_dN	1.0
z_c5_c4	1.0
z_d0_c5	1.0
